14
0  25  41  19  57  23  44  12  50  30  17  39  26  48
25  0  18  55  27  41  12  46  21  57  14  49  28  33
41  18  0  36  20  55  31  19  40  22  50  17  43  28
19  55  36  0  59  16  27  38  12  44  25  30  19  36
57  27  20  59  0  33  21  47  29  18  41  12  55  23
23  41  55  16  33  0  49  11  57  31  18  43  29  37
44  12  31  27  21  49  0  32  19  48  26  14  41  33
12  46  19  38  47  11  32  0  55  28  17  36  24  40
50  21  40  12  29  57  19  55  0  35  29  18  53  27
30  57  22  44  18  31  48  28  35  0  41  25  31  14
17  14  50  25  41  18  26  17  29  41  0  36  22  49
39  49  17  30  12  43  14  36  18  25  36  0  48  31
26  28  43  19  55  29  41  24  53  31  22  48  0  35
48  33  28  36  23  37  33  40  27  14  49  31  35  0